1146.76,49.38,59.18
1146.88,49.37,59.17
1017.4,55.66,66.7
1219.35,46.44,55.66
1028.87,55.04,65.96
1021.75,55.42,66.42
1102.52,51.36,61.55
1033.28,54.8,65.68
1067.25,53.06,63.59
964.89,58.69,70.33
1035.02,54.71,65.57
1102.49,51.36,61.56
1097.96,51.57,61.81
938.63,60.33,72.3
1017.66,55.64,66.69
979.05,57.84,69.32
1159.79,48.82,58.52
1027.65,55.1,66.04
1217.0,46.53,55.77
1066.56,53.09,63.63
